8
2147483647 49 9 43 59 77 100 33 
49 2147483647 61 16 94 1 95 30 
9 61 2147483647 24 7 66 93 79 
43 16 24 2147483647 46 61 40 55 
59 94 7 46 2147483647 36 29 36 
77 1 66 61 36 2147483647 11 37 
100 95 93 40 29 11 2147483647 93 
33 30 79 55 36 37 93 2147483647 
